language Essence 1.3

letting bot_end be [20, 0, 928, 1015, 25, 8, 980, 114, 38, 17, 951, 973, 35, 133, 5; int(1..15)]
letting bot_start be [985, 999, 2, 37, 1005, 1024, 0, 968, 892, 972, 17, 35, 893, 987, 986; int(1..15)]
letting buffer_col be 2
letting buffer_row be 2
letting corridor_size be 1
letting n_shelves_col be 5
letting n_shelves_row be 25
letting shelf_col_size be 2
letting shelf_row_size be 1
